Route #1: 36 47 32
Route #2: 21 42 23 16
Route #3: 2 71 55
Route #4: 87 10 93
Route #5: 67 85 91 69
Route #6: 77 56 17 70
Route #7: 5 14 75
Route #8: 59 13 6
Route #9: 19 11 40
Route #10: 26 66 79 43 29
Route #11: 58 73 37 30 44 46 3 8
Route #12: 15 50 7 38 88
Route #13: 64 78 4
Route #14: 45 68 89 41
Route #15: 83 61 60
Route #16: 18 9
Route #17: 39 48 27 49 97 65 35
Route #18: 22 57 95 81
Route #19: 90 99 100 63 72
Route #20: 101 62 24
Route #21: 20 98 28
Route #22: 84 52 82
Route #23: 51 92 53
Route #24: 80 12 86 31
Route #25: 94 76
Route #26: 33 34 54 74 96 25
